p cnf 495 1772
c p weight 48 -1 0
c p weight -48 1 0
c p weight 50 6.12323399573676603586882014729198302312846062338790031898128063403419218957424163818359375E-17 0
c p weight -50 1 0
c p weight 51 1 0
c p weight -51 1 0
c p weight 52 -1 0
c p weight -52 1 0
c p weight 54 -1 0
c p weight -54 1 0
c p weight 55 -1 0
c p weight -55 1 0
c p weight 57 -1 0
c p weight -57 1 0
c p weight 59 6.12323399573676603586882014729198302312846062338790031898128063403419218957424163818359375E-17 0
c p weight -59 1 0
c p weight 60 1 0
c p weight -60 1 0
c p weight 61 -1 0
c p weight -61 1 0
c p weight 63 -1 0
c p weight -63 1 0
c p weight 64 -1 0
c p weight -64 1 0
c p weight 66 -1 0
c p weight -66 1 0
c p weight 68 6.12323399573676603586882014729198302312846062338790031898128063403419218957424163818359375E-17 0
c p weight -68 1 0
c p weight 69 1 0
c p weight -69 1 0
c p weight 70 -1 0
c p weight -70 1 0
c p weight 72 -1 0
c p weight -72 1 0
c p weight 74 -1 0
c p weight -74 1 0
c p weight 76 6.12323399573676603586882014729198302312846062338790031898128063403419218957424163818359375E-17 0
c p weight -76 1 0
c p weight 77 1 0
c p weight -77 1 0
c p weight 78 -1 0
c p weight -78 1 0
c p weight 80 -1 0
c p weight -80 1 0
c p weight 81 -1 0
c p weight -81 1 0
c p weight 83 -1 0
c p weight -83 1 0
c p weight 85 6.12323399573676603586882014729198302312846062338790031898128063403419218957424163818359375E-17 0
c p weight -85 1 0
c p weight 86 1 0
c p weight -86 1 0
c p weight 87 -1 0
c p weight -87 1 0
c p weight 89 -1 0
c p weight -89 1 0
c p weight 91 -1 0
c p weight -91 1 0
c p weight 93 6.12323399573676603586882014729198302312846062338790031898128063403419218957424163818359375E-17 0
c p weight -93 1 0
c p weight 94 1 0
c p weight -94 1 0
c p weight 95 -1 0
c p weight -95 1 0
c p weight 97 -1 0
c p weight -97 1 0
c p weight 98 -1 0
c p weight -98 1 0
c p weight 100 -1 0
c p weight -100 1 0
c p weight 102 6.12323399573676603586882014729198302312846062338790031898128063403419218957424163818359375E-17 0
c p weight -102 1 0
c p weight 103 1 0
c p weight -103 1 0
c p weight 104 -1 0
c p weight -104 1 0
c p weight 106 -1 0
c p weight -106 1 0
c p weight 107 -1 0
c p weight -107 1 0
c p weight 109 -1 0
c p weight -109 1 0
c p weight 111 6.12323399573676603586882014729198302312846062338790031898128063403419218957424163818359375E-17 0
c p weight -111 1 0
c p weight 112 1 0
c p weight -112 1 0
c p weight 113 -1 0
c p weight -113 1 0
c p weight 115 -1 0
c p weight -115 1 0
c p weight 117 -1 0
c p weight -117 1 0
c p weight 119 6.12323399573676603586882014729198302312846062338790031898128063403419218957424163818359375E-17 0
c p weight -119 1 0
c p weight 120 1 0
c p weight -120 1 0
c p weight 121 -1 0
c p weight -121 1 0
c p weight 123 -1 0
c p weight -123 1 0
c p weight 124 -1 0
c p weight -124 1 0
c p weight 126 -1 0
c p weight -126 1 0
c p weight 128 6.12323399573676603586882014729198302312846062338790031898128063403419218957424163818359375E-17 0
c p weight -128 1 0
c p weight 129 1 0
c p weight -129 1 0
c p weight 130 -1 0
c p weight -130 1 0
c p weight 132 -1 0
c p weight -132 1 0
c p weight 133 -1 0
c p weight -133 1 0
c p weight 135 -1 0
c p weight -135 1 0
c p weight 137 6.12323399573676603586882014729198302312846062338790031898128063403419218957424163818359375E-17 0
c p weight -137 1 0
c p weight 138 1 0
c p weight -138 1 0
c p weight 139 -1 0
c p weight -139 1 0
c p weight 141 -1 0
c p weight -141 1 0
c p weight 143 -1 0
c p weight -143 1 0
c p weight 145 6.12323399573676603586882014729198302312846062338790031898128063403419218957424163818359375E-17 0
c p weight -145 1 0
c p weight 146 1 0
c p weight -146 1 0
c p weight 147 -1 0
c p weight -147 1 0
c p weight 149 -1 0
c p weight -149 1 0
c p weight 150 -1 0
c p weight -150 1 0
c p weight 152 -1 0
c p weight -152 1 0
c p weight 154 6.12323399573676603586882014729198302312846062338790031898128063403419218957424163818359375E-17 0
c p weight -154 1 0
c p weight 155 1 0
c p weight -155 1 0
c p weight 156 -1 0
c p weight -156 1 0
c p weight 158 -1 0
c p weight -158 1 0
c p weight 159 -1 0
c p weight -159 1 0
c p weight 161 -1 0
c p weight -161 1 0
c p weight 163 6.12323399573676603586882014729198302312846062338790031898128063403419218957424163818359375E-17 0
c p weight -163 1 0
c p weight 164 1 0
c p weight -164 1 0
c p weight 165 -1 0
c p weight -165 1 0
c p weight 167 -1 0
c p weight -167 1 0
c p weight 169 -1 0
c p weight -169 1 0
c p weight 171 6.12323399573676603586882014729198302312846062338790031898128063403419218957424163818359375E-17 0
c p weight -171 1 0
c p weight 172 1 0
c p weight -172 1 0
c p weight 173 -1 0
c p weight -173 1 0
c p weight 175 -1 0
c p weight -175 1 0
c p weight 177 -1 0
c p weight -177 1 0
c p weight 179 6.12323399573676603586882014729198302312846062338790031898128063403419218957424163818359375E-17 0
c p weight -179 1 0
c p weight 180 1 0
c p weight -180 1 0
c p weight 181 -1 0
c p weight -181 1 0
c p weight 183 -1 0
c p weight -183 1 0
c p weight 184 -1 0
c p weight -184 1 0
c p weight 186 -1 0
c p weight -186 1 0
c p weight 188 6.12323399573676603586882014729198302312846062338790031898128063403419218957424163818359375E-17 0
c p weight -188 1 0
c p weight 189 1 0
c p weight -189 1 0
c p weight 190 -1 0
c p weight -190 1 0
c p weight 192 -1 0
c p weight -192 1 0
c p weight 194 -1 0
c p weight -194 1 0
c p weight 196 6.12323399573676603586882014729198302312846062338790031898128063403419218957424163818359375E-17 0
c p weight -196 1 0
c p weight 197 1 0
c p weight -197 1 0
c p weight 198 -1 0
c p weight -198 1 0
c p weight 200 -1 0
c p weight -200 1 0
c p weight 202 -1 0
c p weight -202 1 0
c p weight 204 6.12323399573676603586882014729198302312846062338790031898128063403419218957424163818359375E-17 0
c p weight -204 1 0
c p weight 205 1 0
c p weight -205 1 0
c p weight 206 -1 0
c p weight -206 1 0
c p weight 208 -1 0
c p weight -208 1 0
c p weight 210 -1 0
c p weight -210 1 0
c p weight 212 6.12323399573676603586882014729198302312846062338790031898128063403419218957424163818359375E-17 0
c p weight -212 1 0
c p weight 213 1 0
c p weight -213 1 0
c p weight 214 -1 0
c p weight -214 1 0
c p weight 216 -1 0
c p weight -216 1 0
c p weight 218 -1 0
c p weight -218 1 0
c p weight 220 6.12323399573676603586882014729198302312846062338790031898128063403419218957424163818359375E-17 0
c p weight -220 1 0
c p weight 221 1 0
c p weight -221 1 0
c p weight 222 -1 0
c p weight -222 1 0
c p weight 224 -1 0
c p weight -224 1 0
c p weight 226 -1 0
c p weight -226 1 0
c p weight 228 6.12323399573676603586882014729198302312846062338790031898128063403419218957424163818359375E-17 0
c p weight -228 1 0
c p weight 229 1 0
c p weight -229 1 0
c p weight 230 -1 0
c p weight -230 1 0
c p weight 232 -1 0
c p weight -232 1 0
c p weight 233 -1 0
c p weight -233 1 0
c p weight 234 -1 0
c p weight -234 1 0
c p weight 236 -1 0
c p weight -236 1 0
c p weight 238 6.12323399573676603586882014729198302312846062338790031898128063403419218957424163818359375E-17 0
c p weight -238 1 0
c p weight 239 1 0
c p weight -239 1 0
c p weight 240 -1 0
c p weight -240 1 0
c p weight 242 -1 0
c p weight -242 1 0
c p weight 245 -1 0
c p weight -245 1 0
c p weight 246 -1 0
c p weight -246 1 0
c p weight 248 -1 0
c p weight -248 1 0
c p weight 250 6.12323399573676603586882014729198302312846062338790031898128063403419218957424163818359375E-17 0
c p weight -250 1 0
c p weight 251 1 0
c p weight -251 1 0
c p weight 252 -1 0
c p weight -252 1 0
c p weight 254 -1 0
c p weight -254 1 0
c p weight 257 -1 0
c p weight -257 1 0
c p weight 258 -1 0
c p weight -258 1 0
c p weight 260 -1 0
c p weight -260 1 0
c p weight 262 6.12323399573676603586882014729198302312846062338790031898128063403419218957424163818359375E-17 0
c p weight -262 1 0
c p weight 263 1 0
c p weight -263 1 0
c p weight 264 -1 0
c p weight -264 1 0
c p weight 266 -1 0
c p weight -266 1 0
c p weight 269 -1 0
c p weight -269 1 0
c p weight 271 -1 0
c p weight -271 1 0
c p weight 273 6.12323399573676603586882014729198302312846062338790031898128063403419218957424163818359375E-17 0
c p weight -273 1 0
c p weight 274 1 0
c p weight -274 1 0
c p weight 275 -1 0
c p weight -275 1 0
c p weight 277 -1 0
c p weight -277 1 0
c p weight 280 -1 0
c p weight -280 1 0
c p weight 281 -1 0
c p weight -281 1 0
c p weight 283 -1 0
c p weight -283 1 0
c p weight 285 6.12323399573676603586882014729198302312846062338790031898128063403419218957424163818359375E-17 0
c p weight -285 1 0
c p weight 286 1 0
c p weight -286 1 0
c p weight 287 -1 0
c p weight -287 1 0
c p weight 289 -1 0
c p weight -289 1 0
c p weight 292 -1 0
c p weight -292 1 0
c p weight 294 -1 0
c p weight -294 1 0
c p weight 296 6.12323399573676603586882014729198302312846062338790031898128063403419218957424163818359375E-17 0
c p weight -296 1 0
c p weight 297 1 0
c p weight -297 1 0
c p weight 298 -1 0
c p weight -298 1 0
c p weight 300 -1 0
c p weight -300 1 0
c p weight 303 -1 0
c p weight -303 1 0
c p weight 304 -1 0
c p weight -304 1 0
c p weight 306 -1 0
c p weight -306 1 0
c p weight 308 6.12323399573676603586882014729198302312846062338790031898128063403419218957424163818359375E-17 0
c p weight -308 1 0
c p weight 309 1 0
c p weight -309 1 0
c p weight 310 -1 0
c p weight -310 1 0
c p weight 312 -1 0
c p weight -312 1 0
c p weight 315 -1 0
c p weight -315 1 0
c p weight 316 -1 0
c p weight -316 1 0
c p weight 318 -1 0
c p weight -318 1 0
c p weight 320 6.12323399573676603586882014729198302312846062338790031898128063403419218957424163818359375E-17 0
c p weight -320 1 0
c p weight 321 1 0
c p weight -321 1 0
c p weight 322 -1 0
c p weight -322 1 0
c p weight 324 -1 0
c p weight -324 1 0
c p weight 327 -1 0
c p weight -327 1 0
c p weight 329 -1 0
c p weight -329 1 0
c p weight 331 6.12323399573676603586882014729198302312846062338790031898128063403419218957424163818359375E-17 0
c p weight -331 1 0
c p weight 332 1 0
c p weight -332 1 0
c p weight 333 -1 0
c p weight -333 1 0
c p weight 335 -1 0
c p weight -335 1 0
c p weight 338 -1 0
c p weight -338 1 0
c p weight 339 -1 0
c p weight -339 1 0
c p weight 341 -1 0
c p weight -341 1 0
c p weight 343 6.12323399573676603586882014729198302312846062338790031898128063403419218957424163818359375E-17 0
c p weight -343 1 0
c p weight 344 1 0
c p weight -344 1 0
c p weight 345 -1 0
c p weight -345 1 0
c p weight 347 -1 0
c p weight -347 1 0
c p weight 350 -1 0
c p weight -350 1 0
c p weight 351 -1 0
c p weight -351 1 0
c p weight 353 -1 0
c p weight -353 1 0
c p weight 355 6.12323399573676603586882014729198302312846062338790031898128063403419218957424163818359375E-17 0
c p weight -355 1 0
c p weight 356 1 0
c p weight -356 1 0
c p weight 357 -1 0
c p weight -357 1 0
c p weight 359 -1 0
c p weight -359 1 0
c p weight 362 -1 0
c p weight -362 1 0
c p weight 364 -1 0
c p weight -364 1 0
c p weight 366 6.12323399573676603586882014729198302312846062338790031898128063403419218957424163818359375E-17 0
c p weight -366 1 0
c p weight 367 1 0
c p weight -367 1 0
c p weight 368 -1 0
c p weight -368 1 0
c p weight 370 -1 0
c p weight -370 1 0
c p weight 373 -1 0
c p weight -373 1 0
c p weight 374 -1 0
c p weight -374 1 0
c p weight 376 -1 0
c p weight -376 1 0
c p weight 378 6.12323399573676603586882014729198302312846062338790031898128063403419218957424163818359375E-17 0
c p weight -378 1 0
c p weight 379 1 0
c p weight -379 1 0
c p weight 380 -1 0
c p weight -380 1 0
c p weight 382 -1 0
c p weight -382 1 0
c p weight 385 -1 0
c p weight -385 1 0
c p weight 386 -1 0
c p weight -386 1 0
c p weight 388 -1 0
c p weight -388 1 0
c p weight 390 6.12323399573676603586882014729198302312846062338790031898128063403419218957424163818359375E-17 0
c p weight -390 1 0
c p weight 391 1 0
c p weight -391 1 0
c p weight 392 -1 0
c p weight -392 1 0
c p weight 394 -1 0
c p weight -394 1 0
c p weight 397 -1 0
c p weight -397 1 0
c p weight 399 -1 0
c p weight -399 1 0
c p weight 401 6.12323399573676603586882014729198302312846062338790031898128063403419218957424163818359375E-17 0
c p weight -401 1 0
c p weight 402 1 0
c p weight -402 1 0
c p weight 403 -1 0
c p weight -403 1 0
c p weight 405 -1 0
c p weight -405 1 0
c p weight 408 -1 0
c p weight -408 1 0
c p weight 410 -1 0
c p weight -410 1 0
c p weight 412 6.12323399573676603586882014729198302312846062338790031898128063403419218957424163818359375E-17 0
c p weight -412 1 0
c p weight 413 1 0
c p weight -413 1 0
c p weight 414 -1 0
c p weight -414 1 0
c p weight 416 -1 0
c p weight -416 1 0
c p weight 419 -1 0
c p weight -419 1 0
c p weight 420 -1 0
c p weight -420 1 0
c p weight 422 -1 0
c p weight -422 1 0
c p weight 424 6.12323399573676603586882014729198302312846062338790031898128063403419218957424163818359375E-17 0
c p weight -424 1 0
c p weight 425 1 0
c p weight -425 1 0
c p weight 426 -1 0
c p weight -426 1 0
c p weight 428 -1 0
c p weight -428 1 0
c p weight 431 -1 0
c p weight -431 1 0
c p weight 433 -1 0
c p weight -433 1 0
c p weight 435 6.12323399573676603586882014729198302312846062338790031898128063403419218957424163818359375E-17 0
c p weight -435 1 0
c p weight 436 1 0
c p weight -436 1 0
c p weight 437 -1 0
c p weight -437 1 0
c p weight 439 -1 0
c p weight -439 1 0
c p weight 442 -1 0
c p weight -442 1 0
c p weight 444 -1 0
c p weight -444 1 0
c p weight 446 6.12323399573676603586882014729198302312846062338790031898128063403419218957424163818359375E-17 0
c p weight -446 1 0
c p weight 447 1 0
c p weight -447 1 0
c p weight 448 -1 0
c p weight -448 1 0
c p weight 450 -1 0
c p weight -450 1 0
c p weight 453 -1 0
c p weight -453 1 0
c p weight 455 -1 0
c p weight -455 1 0
c p weight 457 6.12323399573676603586882014729198302312846062338790031898128063403419218957424163818359375E-17 0
c p weight -457 1 0
c p weight 458 1 0
c p weight -458 1 0
c p weight 459 -1 0
c p weight -459 1 0
c p weight 461 -1 0
c p weight -461 1 0
c p weight 464 -1 0
c p weight -464 1 0
c p weight 466 -1 0
c p weight -466 1 0
c p weight 468 6.12323399573676603586882014729198302312846062338790031898128063403419218957424163818359375E-17 0
c p weight -468 1 0
c p weight 469 1 0
c p weight -469 1 0
c p weight 470 -1 0
c p weight -470 1 0
c p weight 472 -1 0
c p weight -472 1 0
c p weight 475 -1 0
c p weight -475 1 0
c p weight 477 -1 0
c p weight -477 1 0
c p weight 479 6.12323399573676603586882014729198302312846062338790031898128063403419218957424163818359375E-17 0
c p weight -479 1 0
c p weight 480 1 0
c p weight -480 1 0
c p weight 481 -1 0
c p weight -481 1 0
c p weight 483 -1 0
c p weight -483 1 0
c p weight 486 -1 0
c p weight -486 1 0
c p weight 487 -1 0
c p weight -487 1 0
c p weight 489 -1 0
c p weight -489 1 0
c p weight 491 6.12323399573676603586882014729198302312846062338790031898128063403419218957424163818359375E-17 0
c p weight -491 1 0
c p weight 492 1 0
c p weight -492 1 0
c p weight 493 -1 0
c p weight -493 1 0
c p weight 495 -1 0
c p weight -495 1 0
-45 0
-43 0
-41 0
-39 0
-37 0
-35 0
-33 0
-31 0
-29 0
-27 0
-25 0
-23 0
-21 0
-19 0
-17 0
-15 0
-13 0
-11 0
-9 0
-7 0
-5 0
-3 0
-1 0
47 1 -2 0
47 -1 2 0
-47 1 2 0
-47 -1 -2 0
-48 1 0
-48 2 0
48 -1 -2 0
49 -1 47 0
-49 1 47 0
-50 47 0
49 -50 -1 0
-49 -50 1 0
49 50 1 -47 0
-49 50 -1 -47 0
-51 47 0
49 -51 1 0
-49 -51 -1 0
49 51 -1 -47 0
-49 51 1 -47 0
-52 49 0
-52 47 0
-52 -1 0
52 -49 1 -47 0
53 49 -47 0
53 -49 47 0
-53 49 47 0
-53 -49 -47 0
-54 49 0
-54 47 0
54 -49 -47 0
55 -53 0
-55 53 0
56 3 -4 0
56 -3 4 0
-56 3 4 0
-56 -3 -4 0
-57 3 0
-57 4 0
57 -3 -4 0
58 -3 56 0
-58 3 56 0
-59 56 0
58 -59 -3 0
-58 -59 3 0
58 59 3 -56 0
-58 59 -3 -56 0
-60 56 0
58 -60 3 0
-58 -60 -3 0
58 60 -3 -56 0
-58 60 3 -56 0
-61 58 0
-61 56 0
-61 -3 0
61 -58 3 -56 0
62 58 -56 0
62 -58 56 0
-62 58 56 0
-62 -58 -56 0
-63 58 0
-63 56 0
63 -58 -56 0
64 -62 0
-64 62 0
65 5 -6 0
65 -5 6 0
-65 5 6 0
-65 -5 -6 0
-66 5 0
-66 6 0
66 -5 -6 0
67 -5 65 0
-67 5 65 0
-68 65 0
67 -68 -5 0
-67 -68 5 0
67 68 5 -65 0
-67 68 -5 -65 0
-69 65 0
67 -69 5 0
-67 -69 -5 0
67 69 -5 -65 0
-67 69 5 -65 0
-70 67 0
-70 65 0
-70 -5 0
70 -67 5 -65 0
71 67 -65 0
71 -67 65 0
-71 67 65 0
-71 -67 -65 0
-72 67 0
-72 65 0
72 -67 -65 0
73 7 -8 0
73 -7 8 0
-73 7 8 0
-73 -7 -8 0
-74 7 0
-74 8 0
74 -7 -8 0
75 -7 73 0
-75 7 73 0
-76 73 0
75 -76 -7 0
-75 -76 7 0
75 76 7 -73 0
-75 76 -7 -73 0
-77 73 0
75 -77 7 0
-75 -77 -7 0
75 77 -7 -73 0
-75 77 7 -73 0
-78 75 0
-78 73 0
-78 -7 0
78 -75 7 -73 0
79 75 -73 0
79 -75 73 0
-79 75 73 0
-79 -75 -73 0
-80 75 0
-80 73 0
80 -75 -73 0
81 -79 0
-81 79 0
82 9 -10 0
82 -9 10 0
-82 9 10 0
-82 -9 -10 0
-83 9 0
-83 10 0
83 -9 -10 0
84 -9 82 0
-84 9 82 0
-85 82 0
84 -85 -9 0
-84 -85 9 0
84 85 9 -82 0
-84 85 -9 -82 0
-86 82 0
84 -86 9 0
-84 -86 -9 0
84 86 -9 -82 0
-84 86 9 -82 0
-87 84 0
-87 82 0
-87 -9 0
87 -84 9 -82 0
88 84 -82 0
88 -84 82 0
-88 84 82 0
-88 -84 -82 0
-89 84 0
-89 82 0
89 -84 -82 0
90 11 -12 0
90 -11 12 0
-90 11 12 0
-90 -11 -12 0
-91 11 0
-91 12 0
91 -11 -12 0
92 -11 90 0
-92 11 90 0
-93 90 0
92 -93 -11 0
-92 -93 11 0
92 93 11 -90 0
-92 93 -11 -90 0
-94 90 0
92 -94 11 0
-92 -94 -11 0
92 94 -11 -90 0
-92 94 11 -90 0
-95 92 0
-95 90 0
-95 -11 0
95 -92 11 -90 0
96 92 -90 0
96 -92 90 0
-96 92 90 0
-96 -92 -90 0
-97 92 0
-97 90 0
97 -92 -90 0
98 -96 0
-98 96 0
99 13 -14 0
99 -13 14 0
-99 13 14 0
-99 -13 -14 0
-100 13 0
-100 14 0
100 -13 -14 0
101 -13 99 0
-101 13 99 0
-102 99 0
101 -102 -13 0
-101 -102 13 0
101 102 13 -99 0
-101 102 -13 -99 0
-103 99 0
101 -103 13 0
-101 -103 -13 0
101 103 -13 -99 0
-101 103 13 -99 0
-104 101 0
-104 99 0
-104 -13 0
104 -101 13 -99 0
105 101 -99 0
105 -101 99 0
-105 101 99 0
-105 -101 -99 0
-106 101 0
-106 99 0
106 -101 -99 0
107 -105 0
-107 105 0
108 15 -16 0
108 -15 16 0
-108 15 16 0
-108 -15 -16 0
-109 15 0
-109 16 0
109 -15 -16 0
110 -15 108 0
-110 15 108 0
-111 108 0
110 -111 -15 0
-110 -111 15 0
110 111 15 -108 0
-110 111 -15 -108 0
-112 108 0
110 -112 15 0
-110 -112 -15 0
110 112 -15 -108 0
-110 112 15 -108 0
-113 110 0
-113 108 0
-113 -15 0
113 -110 15 -108 0
114 110 -108 0
114 -110 108 0
-114 110 108 0
-114 -110 -108 0
-115 110 0
-115 108 0
115 -110 -108 0
116 17 -18 0
116 -17 18 0
-116 17 18 0
-116 -17 -18 0
-117 17 0
-117 18 0
117 -17 -18 0
118 -17 116 0
-118 17 116 0
-119 116 0
118 -119 -17 0
-118 -119 17 0
118 119 17 -116 0
-118 119 -17 -116 0
-120 116 0
118 -120 17 0
-118 -120 -17 0
118 120 -17 -116 0
-118 120 17 -116 0
-121 118 0
-121 116 0
-121 -17 0
121 -118 17 -116 0
122 118 -116 0
122 -118 116 0
-122 118 116 0
-122 -118 -116 0
-123 118 0
-123 116 0
123 -118 -116 0
124 -122 0
-124 122 0
125 19 -20 0
125 -19 20 0
-125 19 20 0
-125 -19 -20 0
-126 19 0
-126 20 0
126 -19 -20 0
127 -19 125 0
-127 19 125 0
-128 125 0
127 -128 -19 0
-127 -128 19 0
127 128 19 -125 0
-127 128 -19 -125 0
-129 125 0
127 -129 19 0
-127 -129 -19 0
127 129 -19 -125 0
-127 129 19 -125 0
-130 127 0
-130 125 0
-130 -19 0
130 -127 19 -125 0
131 127 -125 0
131 -127 125 0
-131 127 125 0
-131 -127 -125 0
-132 127 0
-132 125 0
132 -127 -125 0
133 -131 0
-133 131 0
134 21 -22 0
134 -21 22 0
-134 21 22 0
-134 -21 -22 0
-135 21 0
-135 22 0
135 -21 -22 0
136 -21 134 0
-136 21 134 0
-137 134 0
136 -137 -21 0
-136 -137 21 0
136 137 21 -134 0
-136 137 -21 -134 0
-138 134 0
136 -138 21 0
-136 -138 -21 0
136 138 -21 -134 0
-136 138 21 -134 0
-139 136 0
-139 134 0
-139 -21 0
139 -136 21 -134 0
140 136 -134 0
140 -136 134 0
-140 136 134 0
-140 -136 -134 0
-141 136 0
-141 134 0
141 -136 -134 0
142 23 -24 0
142 -23 24 0
-142 23 24 0
-142 -23 -24 0
-143 23 0
-143 24 0
143 -23 -24 0
144 -23 142 0
-144 23 142 0
-145 142 0
144 -145 -23 0
-144 -145 23 0
144 145 23 -142 0
-144 145 -23 -142 0
-146 142 0
144 -146 23 0
-144 -146 -23 0
144 146 -23 -142 0
-144 146 23 -142 0
-147 144 0
-147 142 0
-147 -23 0
147 -144 23 -142 0
148 144 -142 0
148 -144 142 0
-148 144 142 0
-148 -144 -142 0
-149 144 0
-149 142 0
149 -144 -142 0
150 -148 0
-150 148 0
151 25 -26 0
151 -25 26 0
-151 25 26 0
-151 -25 -26 0
-152 25 0
-152 26 0
152 -25 -26 0
153 -25 151 0
-153 25 151 0
-154 151 0
153 -154 -25 0
-153 -154 25 0
153 154 25 -151 0
-153 154 -25 -151 0
-155 151 0
153 -155 25 0
-153 -155 -25 0
153 155 -25 -151 0
-153 155 25 -151 0
-156 153 0
-156 151 0
-156 -25 0
156 -153 25 -151 0
157 153 -151 0
157 -153 151 0
-157 153 151 0
-157 -153 -151 0
-158 153 0
-158 151 0
158 -153 -151 0
159 -157 0
-159 157 0
160 27 -28 0
160 -27 28 0
-160 27 28 0
-160 -27 -28 0
-161 27 0
-161 28 0
161 -27 -28 0
162 -27 160 0
-162 27 160 0
-163 160 0
162 -163 -27 0
-162 -163 27 0
162 163 27 -160 0
-162 163 -27 -160 0
-164 160 0
162 -164 27 0
-162 -164 -27 0
162 164 -27 -160 0
-162 164 27 -160 0
-165 162 0
-165 160 0
-165 -27 0
165 -162 27 -160 0
166 162 -160 0
166 -162 160 0
-166 162 160 0
-166 -162 -160 0
-167 162 0
-167 160 0
167 -162 -160 0
168 29 -30 0
168 -29 30 0
-168 29 30 0
-168 -29 -30 0
-169 29 0
-169 30 0
169 -29 -30 0
170 -29 168 0
-170 29 168 0
-171 168 0
170 -171 -29 0
-170 -171 29 0
170 171 29 -168 0
-170 171 -29 -168 0
-172 168 0
170 -172 29 0
-170 -172 -29 0
170 172 -29 -168 0
-170 172 29 -168 0
-173 170 0
-173 168 0
-173 -29 0
173 -170 29 -168 0
174 170 -168 0
174 -170 168 0
-174 170 168 0
-174 -170 -168 0
-175 170 0
-175 168 0
175 -170 -168 0
176 31 -32 0
176 -31 32 0
-176 31 32 0
-176 -31 -32 0
-177 31 0
-177 32 0
177 -31 -32 0
178 -31 176 0
-178 31 176 0
-179 176 0
178 -179 -31 0
-178 -179 31 0
178 179 31 -176 0
-178 179 -31 -176 0
-180 176 0
178 -180 31 0
-178 -180 -31 0
178 180 -31 -176 0
-178 180 31 -176 0
-181 178 0
-181 176 0
-181 -31 0
181 -178 31 -176 0
182 178 -176 0
182 -178 176 0
-182 178 176 0
-182 -178 -176 0
-183 178 0
-183 176 0
183 -178 -176 0
184 -182 0
-184 182 0
185 33 -34 0
185 -33 34 0
-185 33 34 0
-185 -33 -34 0
-186 33 0
-186 34 0
186 -33 -34 0
187 -33 185 0
-187 33 185 0
-188 185 0
187 -188 -33 0
-187 -188 33 0
187 188 33 -185 0
-187 188 -33 -185 0
-189 185 0
187 -189 33 0
-187 -189 -33 0
187 189 -33 -185 0
-187 189 33 -185 0
-190 187 0
-190 185 0
-190 -33 0
190 -187 33 -185 0
191 187 -185 0
191 -187 185 0
-191 187 185 0
-191 -187 -185 0
-192 187 0
-192 185 0
192 -187 -185 0
193 35 -36 0
193 -35 36 0
-193 35 36 0
-193 -35 -36 0
-194 35 0
-194 36 0
194 -35 -36 0
195 -35 193 0
-195 35 193 0
-196 193 0
195 -196 -35 0
-195 -196 35 0
195 196 35 -193 0
-195 196 -35 -193 0
-197 193 0
195 -197 35 0
-195 -197 -35 0
195 197 -35 -193 0
-195 197 35 -193 0
-198 195 0
-198 193 0
-198 -35 0
198 -195 35 -193 0
199 195 -193 0
199 -195 193 0
-199 195 193 0
-199 -195 -193 0
-200 195 0
-200 193 0
200 -195 -193 0
201 37 -38 0
201 -37 38 0
-201 37 38 0
-201 -37 -38 0
-202 37 0
-202 38 0
202 -37 -38 0
203 -37 201 0
-203 37 201 0
-204 201 0
203 -204 -37 0
-203 -204 37 0
203 204 37 -201 0
-203 204 -37 -201 0
-205 201 0
203 -205 37 0
-203 -205 -37 0
203 205 -37 -201 0
-203 205 37 -201 0
-206 203 0
-206 201 0
-206 -37 0
206 -203 37 -201 0
207 203 -201 0
207 -203 201 0
-207 203 201 0
-207 -203 -201 0
-208 203 0
-208 201 0
208 -203 -201 0
209 39 -40 0
209 -39 40 0
-209 39 40 0
-209 -39 -40 0
-210 39 0
-210 40 0
210 -39 -40 0
211 -39 209 0
-211 39 209 0
-212 209 0
211 -212 -39 0
-211 -212 39 0
211 212 39 -209 0
-211 212 -39 -209 0
-213 209 0
211 -213 39 0
-211 -213 -39 0
211 213 -39 -209 0
-211 213 39 -209 0
-214 211 0
-214 209 0
-214 -39 0
214 -211 39 -209 0
215 211 -209 0
215 -211 209 0
-215 211 209 0
-215 -211 -209 0
-216 211 0
-216 209 0
216 -211 -209 0
217 41 -42 0
217 -41 42 0
-217 41 42 0
-217 -41 -42 0
-218 41 0
-218 42 0
218 -41 -42 0
219 -41 217 0
-219 41 217 0
-220 217 0
219 -220 -41 0
-219 -220 41 0
219 220 41 -217 0
-219 220 -41 -217 0
-221 217 0
219 -221 41 0
-219 -221 -41 0
219 221 -41 -217 0
-219 221 41 -217 0
-222 219 0
-222 217 0
-222 -41 0
222 -219 41 -217 0
223 219 -217 0
223 -219 217 0
-223 219 217 0
-223 -219 -217 0
-224 219 0
-224 217 0
224 -219 -217 0
225 43 -44 0
225 -43 44 0
-225 43 44 0
-225 -43 -44 0
-226 43 0
-226 44 0
226 -43 -44 0
227 -43 225 0
-227 43 225 0
-228 225 0
227 -228 -43 0
-227 -228 43 0
227 228 43 -225 0
-227 228 -43 -225 0
-229 225 0
227 -229 43 0
-227 -229 -43 0
227 229 -43 -225 0
-227 229 43 -225 0
-230 227 0
-230 225 0
-230 -43 0
230 -227 43 -225 0
231 227 -225 0
231 -227 225 0
-231 227 225 0
-231 -227 -225 0
-232 227 0
-232 225 0
232 -227 -225 0
233 -231 0
-233 231 0
234 -46 0
-234 46 0
235 45 -46 0
235 -45 46 0
-235 45 46 0
-235 -45 -46 0
-236 45 0
-236 46 0
236 -45 -46 0
237 -45 235 0
-237 45 235 0
-238 235 0
237 -238 -45 0
-237 -238 45 0
237 238 45 -235 0
-237 238 -45 -235 0
-239 235 0
237 -239 45 0
-237 -239 -45 0
237 239 -45 -235 0
-237 239 45 -235 0
-240 237 0
-240 235 0
-240 -45 0
240 -237 45 -235 0
241 237 -235 0
241 -237 235 0
-241 237 235 0
-241 -237 -235 0
-242 237 0
-242 235 0
242 -237 -235 0
243 49 -237 0
243 -49 237 0
-243 49 237 0
-243 -49 -237 0
244 53 -241 0
244 -53 241 0
-244 53 241 0
-244 -53 -241 0
-245 49 0
-245 241 0
-245 237 -53 0
-245 -237 53 0
245 -49 237 53 -241 0
245 -49 -237 -53 -241 0
246 -244 0
-246 244 0
247 49 -244 0
247 -49 244 0
-247 49 244 0
-247 -49 -244 0
-248 49 0
-248 244 0
248 -49 -244 0
249 -49 247 0
-249 49 247 0
-250 247 0
249 -250 -49 0
-249 -250 49 0
249 250 49 -247 0
-249 250 -49 -247 0
-251 247 0
249 -251 49 0
-249 -251 -49 0
249 251 -49 -247 0
-249 251 49 -247 0
-252 249 0
-252 247 0
-252 -49 0
252 -249 49 -247 0
253 249 -247 0
253 -249 247 0
-253 249 247 0
-253 -249 -247 0
-254 249 0
-254 247 0
254 -249 -247 0
255 58 -243 0
255 -58 243 0
-255 58 243 0
-255 -58 -243 0
256 62 -241 0
256 -62 241 0
-256 62 241 0
-256 -62 -241 0
-257 58 0
-257 241 0
-257 243 -62 0
-257 -243 62 0
257 -58 243 62 -241 0
257 -58 -243 -62 -241 0
258 -256 0
-258 256 0
259 58 -256 0
259 -58 256 0
-259 58 256 0
-259 -58 -256 0
-260 58 0
-260 256 0
260 -58 -256 0
261 -58 259 0
-261 58 259 0
-262 259 0
261 -262 -58 0
-261 -262 58 0
261 262 58 -259 0
-261 262 -58 -259 0
-263 259 0
261 -263 58 0
-261 -263 -58 0
261 263 -58 -259 0
-261 263 58 -259 0
-264 261 0
-264 259 0
-264 -58 0
264 -261 58 -259 0
265 261 -259 0
265 -261 259 0
-265 261 259 0
-265 -261 -259 0
-266 261 0
-266 259 0
266 -261 -259 0
267 67 -255 0
267 -67 255 0
-267 67 255 0
-267 -67 -255 0
268 71 -241 0
268 -71 241 0
-268 71 241 0
-268 -71 -241 0
-269 67 0
-269 241 0
-269 255 -71 0
-269 -255 71 0
269 -67 255 71 -241 0
269 -67 -255 -71 -241 0
270 67 -268 0
270 -67 268 0
-270 67 268 0
-270 -67 -268 0
-271 67 0
-271 268 0
271 -67 -268 0
272 -67 270 0
-272 67 270 0
-273 270 0
272 -273 -67 0
-272 -273 67 0
272 273 67 -270 0
-272 273 -67 -270 0
-274 270 0
272 -274 67 0
-272 -274 -67 0
272 274 -67 -270 0
-272 274 67 -270 0
-275 272 0
-275 270 0
-275 -67 0
275 -272 67 -270 0
276 272 -270 0
276 -272 270 0
-276 272 270 0
-276 -272 -270 0
-277 272 0
-277 270 0
277 -272 -270 0
278 75 -267 0
278 -75 267 0
-278 75 267 0
-278 -75 -267 0
279 79 -241 0
279 -79 241 0
-279 79 241 0
-279 -79 -241 0
-280 75 0
-280 241 0
-280 267 -79 0
-280 -267 79 0
280 -75 267 79 -241 0
280 -75 -267 -79 -241 0
281 -279 0
-281 279 0
282 75 -279 0
282 -75 279 0
-282 75 279 0
-282 -75 -279 0
-283 75 0
-283 279 0
283 -75 -279 0
284 -75 282 0
-284 75 282 0
-285 282 0
284 -285 -75 0
-284 -285 75 0
284 285 75 -282 0
-284 285 -75 -282 0
-286 282 0
284 -286 75 0
-284 -286 -75 0
284 286 -75 -282 0
-284 286 75 -282 0
-287 284 0
-287 282 0
-287 -75 0
287 -284 75 -282 0
288 284 -282 0
288 -284 282 0
-288 284 282 0
-288 -284 -282 0
-289 284 0
-289 282 0
289 -284 -282 0
290 84 -278 0
290 -84 278 0
-290 84 278 0
-290 -84 -278 0
291 88 -241 0
291 -88 241 0
-291 88 241 0
-291 -88 -241 0
-292 84 0
-292 241 0
-292 278 -88 0
-292 -278 88 0
292 -84 278 88 -241 0
292 -84 -278 -88 -241 0
293 84 -291 0
293 -84 291 0
-293 84 291 0
-293 -84 -291 0
-294 84 0
-294 291 0
294 -84 -291 0
295 -84 293 0
-295 84 293 0
-296 293 0
295 -296 -84 0
-295 -296 84 0
295 296 84 -293 0
-295 296 -84 -293 0
-297 293 0
295 -297 84 0
-295 -297 -84 0
295 297 -84 -293 0
-295 297 84 -293 0
-298 295 0
-298 293 0
-298 -84 0
298 -295 84 -293 0
299 295 -293 0
299 -295 293 0
-299 295 293 0
-299 -295 -293 0
-300 295 0
-300 293 0
300 -295 -293 0
301 92 -290 0
301 -92 290 0
-301 92 290 0
-301 -92 -290 0
302 96 -241 0
302 -96 241 0
-302 96 241 0
-302 -96 -241 0
-303 92 0
-303 241 0
-303 290 -96 0
-303 -290 96 0
303 -92 290 96 -241 0
303 -92 -290 -96 -241 0
304 -302 0
-304 302 0
305 92 -302 0
305 -92 302 0
-305 92 302 0
-305 -92 -302 0
-306 92 0
-306 302 0
306 -92 -302 0
307 -92 305 0
-307 92 305 0
-308 305 0
307 -308 -92 0
-307 -308 92 0
307 308 92 -305 0
-307 308 -92 -305 0
-309 305 0
307 -309 92 0
-307 -309 -92 0
307 309 -92 -305 0
-307 309 92 -305 0
-310 307 0
-310 305 0
-310 -92 0
310 -307 92 -305 0
311 307 -305 0
311 -307 305 0
-311 307 305 0
-311 -307 -305 0
-312 307 0
-312 305 0
312 -307 -305 0
313 101 -301 0
313 -101 301 0
-313 101 301 0
-313 -101 -301 0
314 105 -241 0
314 -105 241 0
-314 105 241 0
-314 -105 -241 0
-315 101 0
-315 241 0
-315 301 -105 0
-315 -301 105 0
315 -101 301 105 -241 0
315 -101 -301 -105 -241 0
316 -314 0
-316 314 0
317 101 -314 0
317 -101 314 0
-317 101 314 0
-317 -101 -314 0
-318 101 0
-318 314 0
318 -101 -314 0
319 -101 317 0
-319 101 317 0
-320 317 0
319 -320 -101 0
-319 -320 101 0
319 320 101 -317 0
-319 320 -101 -317 0
-321 317 0
319 -321 101 0
-319 -321 -101 0
319 321 -101 -317 0
-319 321 101 -317 0
-322 319 0
-322 317 0
-322 -101 0
322 -319 101 -317 0
323 319 -317 0
323 -319 317 0
-323 319 317 0
-323 -319 -317 0
-324 319 0
-324 317 0
324 -319 -317 0
325 110 -313 0
325 -110 313 0
-325 110 313 0
-325 -110 -313 0
326 114 -241 0
326 -114 241 0
-326 114 241 0
-326 -114 -241 0
-327 110 0
-327 241 0
-327 313 -114 0
-327 -313 114 0
327 -110 313 114 -241 0
327 -110 -313 -114 -241 0
328 110 -326 0
328 -110 326 0
-328 110 326 0
-328 -110 -326 0
-329 110 0
-329 326 0
329 -110 -326 0
330 -110 328 0
-330 110 328 0
-331 328 0
330 -331 -110 0
-330 -331 110 0
330 331 110 -328 0
-330 331 -110 -328 0
-332 328 0
330 -332 110 0
-330 -332 -110 0
330 332 -110 -328 0
-330 332 110 -328 0
-333 330 0
-333 328 0
-333 -110 0
333 -330 110 -328 0
334 330 -328 0
334 -330 328 0
-334 330 328 0
-334 -330 -328 0
-335 330 0
-335 328 0
335 -330 -328 0
336 118 -325 0
336 -118 325 0
-336 118 325 0
-336 -118 -325 0
337 122 -241 0
337 -122 241 0
-337 122 241 0
-337 -122 -241 0
-338 118 0
-338 241 0
-338 325 -122 0
-338 -325 122 0
338 -118 325 122 -241 0
338 -118 -325 -122 -241 0
339 -337 0
-339 337 0
340 118 -337 0
340 -118 337 0
-340 118 337 0
-340 -118 -337 0
-341 118 0
-341 337 0
341 -118 -337 0
342 -118 340 0
-342 118 340 0
-343 340 0
342 -343 -118 0
-342 -343 118 0
342 343 118 -340 0
-342 343 -118 -340 0
-344 340 0
342 -344 118 0
-342 -344 -118 0
342 344 -118 -340 0
-342 344 118 -340 0
-345 342 0
-345 340 0
-345 -118 0
345 -342 118 -340 0
346 342 -340 0
346 -342 340 0
-346 342 340 0
-346 -342 -340 0
-347 342 0
-347 340 0
347 -342 -340 0
348 127 -336 0
348 -127 336 0
-348 127 336 0
-348 -127 -336 0
349 131 -241 0
349 -131 241 0
-349 131 241 0
-349 -131 -241 0
-350 127 0
-350 241 0
-350 336 -131 0
-350 -336 131 0
350 -127 336 131 -241 0
350 -127 -336 -131 -241 0
351 -349 0
-351 349 0
352 127 -349 0
352 -127 349 0
-352 127 349 0
-352 -127 -349 0
-353 127 0
-353 349 0
353 -127 -349 0
354 -127 352 0
-354 127 352 0
-355 352 0
354 -355 -127 0
-354 -355 127 0
354 355 127 -352 0
-354 355 -127 -352 0
-356 352 0
354 -356 127 0
-354 -356 -127 0
354 356 -127 -352 0
-354 356 127 -352 0
-357 354 0
-357 352 0
-357 -127 0
357 -354 127 -352 0
358 354 -352 0
358 -354 352 0
-358 354 352 0
-358 -354 -352 0
-359 354 0
-359 352 0
359 -354 -352 0
360 136 -348 0
360 -136 348 0
-360 136 348 0
-360 -136 -348 0
361 140 -241 0
361 -140 241 0
-361 140 241 0
-361 -140 -241 0
-362 136 0
-362 241 0
-362 348 -140 0
-362 -348 140 0
362 -136 348 140 -241 0
362 -136 -348 -140 -241 0
363 136 -361 0
363 -136 361 0
-363 136 361 0
-363 -136 -361 0
-364 136 0
-364 361 0
364 -136 -361 0
365 -136 363 0
-365 136 363 0
-366 363 0
365 -366 -136 0
-365 -366 136 0
365 366 136 -363 0
-365 366 -136 -363 0
-367 363 0
365 -367 136 0
-365 -367 -136 0
365 367 -136 -363 0
-365 367 136 -363 0
-368 365 0
-368 363 0
-368 -136 0
368 -365 136 -363 0
369 365 -363 0
369 -365 363 0
-369 365 363 0
-369 -365 -363 0
-370 365 0
-370 363 0
370 -365 -363 0
371 144 -360 0
371 -144 360 0
-371 144 360 0
-371 -144 -360 0
372 148 -241 0
372 -148 241 0
-372 148 241 0
-372 -148 -241 0
-373 144 0
-373 241 0
-373 360 -148 0
-373 -360 148 0
373 -144 360 148 -241 0
373 -144 -360 -148 -241 0
374 -372 0
-374 372 0
375 144 -372 0
375 -144 372 0
-375 144 372 0
-375 -144 -372 0
-376 144 0
-376 372 0
376 -144 -372 0
377 -144 375 0
-377 144 375 0
-378 375 0
377 -378 -144 0
-377 -378 144 0
377 378 144 -375 0
-377 378 -144 -375 0
-379 375 0
377 -379 144 0
-377 -379 -144 0
377 379 -144 -375 0
-377 379 144 -375 0
-380 377 0
-380 375 0
-380 -144 0
380 -377 144 -375 0
381 377 -375 0
381 -377 375 0
-381 377 375 0
-381 -377 -375 0
-382 377 0
-382 375 0
382 -377 -375 0
383 153 -371 0
383 -153 371 0
-383 153 371 0
-383 -153 -371 0
384 157 -241 0
384 -157 241 0
-384 157 241 0
-384 -157 -241 0
-385 153 0
-385 241 0
-385 371 -157 0
-385 -371 157 0
385 -153 371 157 -241 0
385 -153 -371 -157 -241 0
386 -384 0
-386 384 0
387 153 -384 0
387 -153 384 0
-387 153 384 0
-387 -153 -384 0
-388 153 0
-388 384 0
388 -153 -384 0
389 -153 387 0
-389 153 387 0
-390 387 0
389 -390 -153 0
-389 -390 153 0
389 390 153 -387 0
-389 390 -153 -387 0
-391 387 0
389 -391 153 0
-389 -391 -153 0
389 391 -153 -387 0
-389 391 153 -387 0
-392 389 0
-392 387 0
-392 -153 0
392 -389 153 -387 0
393 389 -387 0
393 -389 387 0
-393 389 387 0
-393 -389 -387 0
-394 389 0
-394 387 0
394 -389 -387 0
395 162 -383 0
395 -162 383 0
-395 162 383 0
-395 -162 -383 0
396 166 -241 0
396 -166 241 0
-396 166 241 0
-396 -166 -241 0
-397 162 0
-397 241 0
-397 383 -166 0
-397 -383 166 0
397 -162 383 166 -241 0
397 -162 -383 -166 -241 0
398 162 -396 0
398 -162 396 0
-398 162 396 0
-398 -162 -396 0
-399 162 0
-399 396 0
399 -162 -396 0
400 -162 398 0
-400 162 398 0
-401 398 0
400 -401 -162 0
-400 -401 162 0
400 401 162 -398 0
-400 401 -162 -398 0
-402 398 0
400 -402 162 0
-400 -402 -162 0
400 402 -162 -398 0
-400 402 162 -398 0
-403 400 0
-403 398 0
-403 -162 0
403 -400 162 -398 0
404 400 -398 0
404 -400 398 0
-404 400 398 0
-404 -400 -398 0
-405 400 0
-405 398 0
405 -400 -398 0
406 170 -395 0
406 -170 395 0
-406 170 395 0
-406 -170 -395 0
407 174 -241 0
407 -174 241 0
-407 174 241 0
-407 -174 -241 0
-408 170 0
-408 241 0
-408 395 -174 0
-408 -395 174 0
408 -170 395 174 -241 0
408 -170 -395 -174 -241 0
409 170 -407 0
409 -170 407 0
-409 170 407 0
-409 -170 -407 0
-410 170 0
-410 407 0
410 -170 -407 0
411 -170 409 0
-411 170 409 0
-412 409 0
411 -412 -170 0
-411 -412 170 0
411 412 170 -409 0
-411 412 -170 -409 0
-413 409 0
411 -413 170 0
-411 -413 -170 0
411 413 -170 -409 0
-411 413 170 -409 0
-414 411 0
-414 409 0
-414 -170 0
414 -411 170 -409 0
415 411 -409 0
415 -411 409 0
-415 411 409 0
-415 -411 -409 0
-416 411 0
-416 409 0
416 -411 -409 0
417 178 -406 0
417 -178 406 0
-417 178 406 0
-417 -178 -406 0
418 182 -241 0
418 -182 241 0
-418 182 241 0
-418 -182 -241 0
-419 178 0
-419 241 0
-419 406 -182 0
-419 -406 182 0
419 -178 406 182 -241 0
419 -178 -406 -182 -241 0
420 -418 0
-420 418 0
421 178 -418 0
421 -178 418 0
-421 178 418 0
-421 -178 -418 0
-422 178 0
-422 418 0
422 -178 -418 0
423 -178 421 0
-423 178 421 0
-424 421 0
423 -424 -178 0
-423 -424 178 0
423 424 178 -421 0
-423 424 -178 -421 0
-425 421 0
423 -425 178 0
-423 -425 -178 0
423 425 -178 -421 0
-423 425 178 -421 0
-426 423 0
-426 421 0
-426 -178 0
426 -423 178 -421 0
427 423 -421 0
427 -423 421 0
-427 423 421 0
-427 -423 -421 0
-428 423 0
-428 421 0
428 -423 -421 0
429 187 -417 0
429 -187 417 0
-429 187 417 0
-429 -187 -417 0
430 191 -241 0
430 -191 241 0
-430 191 241 0
-430 -191 -241 0
-431 187 0
-431 241 0
-431 417 -191 0
-431 -417 191 0
431 -187 417 191 -241 0
431 -187 -417 -191 -241 0
432 187 -430 0
432 -187 430 0
-432 187 430 0
-432 -187 -430 0
-433 187 0
-433 430 0
433 -187 -430 0
434 -187 432 0
-434 187 432 0
-435 432 0
434 -435 -187 0
-434 -435 187 0
434 435 187 -432 0
-434 435 -187 -432 0
-436 432 0
434 -436 187 0
-434 -436 -187 0
434 436 -187 -432 0
-434 436 187 -432 0
-437 434 0
-437 432 0
-437 -187 0
437 -434 187 -432 0
438 434 -432 0
438 -434 432 0
-438 434 432 0
-438 -434 -432 0
-439 434 0
-439 432 0
439 -434 -432 0
440 195 -429 0
440 -195 429 0
-440 195 429 0
-440 -195 -429 0
441 199 -241 0
441 -199 241 0
-441 199 241 0
-441 -199 -241 0
-442 195 0
-442 241 0
-442 429 -199 0
-442 -429 199 0
442 -195 429 199 -241 0
442 -195 -429 -199 -241 0
443 195 -441 0
443 -195 441 0
-443 195 441 0
-443 -195 -441 0
-444 195 0
-444 441 0
444 -195 -441 0
445 -195 443 0
-445 195 443 0
-446 443 0
445 -446 -195 0
-445 -446 195 0
445 446 195 -443 0
-445 446 -195 -443 0
-447 443 0
445 -447 195 0
-445 -447 -195 0
445 447 -195 -443 0
-445 447 195 -443 0
-448 445 0
-448 443 0
-448 -195 0
448 -445 195 -443 0
449 445 -443 0
449 -445 443 0
-449 445 443 0
-449 -445 -443 0
-450 445 0
-450 443 0
450 -445 -443 0
451 203 -440 0
451 -203 440 0
-451 203 440 0
-451 -203 -440 0
452 207 -241 0
452 -207 241 0
-452 207 241 0
-452 -207 -241 0
-453 203 0
-453 241 0
-453 440 -207 0
-453 -440 207 0
453 -203 440 207 -241 0
453 -203 -440 -207 -241 0
454 203 -452 0
454 -203 452 0
-454 203 452 0
-454 -203 -452 0
-455 203 0
-455 452 0
455 -203 -452 0
456 -203 454 0
-456 203 454 0
-457 454 0
456 -457 -203 0
-456 -457 203 0
456 457 203 -454 0
-456 457 -203 -454 0
-458 454 0
456 -458 203 0
-456 -458 -203 0
456 458 -203 -454 0
-456 458 203 -454 0
-459 456 0
-459 454 0
-459 -203 0
459 -456 203 -454 0
460 456 -454 0
460 -456 454 0
-460 456 454 0
-460 -456 -454 0
-461 456 0
-461 454 0
461 -456 -454 0
462 211 -451 0
462 -211 451 0
-462 211 451 0
-462 -211 -451 0
463 215 -241 0
463 -215 241 0
-463 215 241 0
-463 -215 -241 0
-464 211 0
-464 241 0
-464 451 -215 0
-464 -451 215 0
464 -211 451 215 -241 0
464 -211 -451 -215 -241 0
465 211 -463 0
465 -211 463 0
-465 211 463 0
-465 -211 -463 0
-466 211 0
-466 463 0
466 -211 -463 0
467 -211 465 0
-467 211 465 0
-468 465 0
467 -468 -211 0
-467 -468 211 0
467 468 211 -465 0
-467 468 -211 -465 0
-469 465 0
467 -469 211 0
-467 -469 -211 0
467 469 -211 -465 0
-467 469 211 -465 0
-470 467 0
-470 465 0
-470 -211 0
470 -467 211 -465 0
471 467 -465 0
471 -467 465 0
-471 467 465 0
-471 -467 -465 0
-472 467 0
-472 465 0
472 -467 -465 0
473 219 -462 0
473 -219 462 0
-473 219 462 0
-473 -219 -462 0
474 223 -241 0
474 -223 241 0
-474 223 241 0
-474 -223 -241 0
-475 219 0
-475 241 0
-475 462 -223 0
-475 -462 223 0
475 -219 462 223 -241 0
475 -219 -462 -223 -241 0
476 219 -474 0
476 -219 474 0
-476 219 474 0
-476 -219 -474 0
-477 219 0
-477 474 0
477 -219 -474 0
478 -219 476 0
-478 219 476 0
-479 476 0
478 -479 -219 0
-478 -479 219 0
478 479 219 -476 0
-478 479 -219 -476 0
-480 476 0
478 -480 219 0
-478 -480 -219 0
478 480 -219 -476 0
-478 480 219 -476 0
-481 478 0
-481 476 0
-481 -219 0
481 -478 219 -476 0
482 478 -476 0
482 -478 476 0
-482 478 476 0
-482 -478 -476 0
-483 478 0
-483 476 0
483 -478 -476 0
484 227 -473 0
484 -227 473 0
-484 227 473 0
-484 -227 -473 0
485 231 -241 0
485 -231 241 0
-485 231 241 0
-485 -231 -241 0
-486 227 0
-486 241 0
-486 473 -231 0
-486 -473 231 0
486 -227 473 231 -241 0
486 -227 -473 -231 -241 0
487 -485 0
-487 485 0
488 227 -485 0
488 -227 485 0
-488 227 485 0
-488 -227 -485 0
-489 227 0
-489 485 0
489 -227 -485 0
490 -227 488 0
-490 227 488 0
-491 488 0
490 -491 -227 0
-490 -491 227 0
490 491 227 -488 0
-490 491 -227 -488 0
-492 488 0
490 -492 227 0
-490 -492 -227 0
490 492 -227 -488 0
-490 492 227 -488 0
-493 490 0
-493 488 0
-493 -227 0
493 -490 227 -488 0
494 490 -488 0
494 -490 488 0
-494 490 488 0
-494 -490 -488 0
-495 490 0
-495 488 0
495 -490 -488 0
-249 0
-261 0
-265 0
-272 0
-276 0
-284 0
-288 0
-295 0
-299 0
-307 0
-311 0
-319 0
-323 0
-330 0
-334 0
-342 0
-346 0
-354 0
-358 0
-365 0
-369 0
-377 0
-381 0
-389 0
-393 0
-400 0
-404 0
-411 0
-415 0
-423 0
-427 0
-434 0
-438 0
-445 0
-449 0
-456 0
-460 0
-467 0
-471 0
-478 0
-482 0
-490 0
-494 0
-484 0
-241 0
